inputs/factoring31-5bit.dimacs
p cnf 197 483
c Factors encoded in variables 1-5 and 6-10
c Target number: 31
-11 0
12 0
-38 14 18 0
-38 -14 -18 0
38 14 -18 0
38 -14 18 0
-14 -18 39 0
14 18 -39 0
14 -39 0
18 -39 0
-15 -19 41 0
-15 -39 41 0
-19 -39 41 0
15 19 -41 0
15 39 -41 0
19 39 -41 0
-16 -20 43 0
-16 -41 43 0
-20 -41 43 0
16 20 -43 0
16 41 -43 0
20 41 -43 0
-17 -21 45 0
-17 -43 45 0
-21 -43 45 0
17 21 -45 0
17 43 -45 0
21 43 -45 0
-46 22 45 0
-46 -22 -45 0
46 22 -45 0
46 -22 45 0
-22 -45 47 0
22 45 -47 0
22 -47 0
45 -47 0
-48 24 28 0
-48 -24 -28 0
48 24 -28 0
48 -24 28 0
-24 -28 49 0
24 28 -49 0
24 -49 0
28 -49 0
-25 -29 51 0
-25 -49 51 0
-29 -49 51 0
25 29 -51 0
25 49 -51 0
29 49 -51 0
-26 -30 53 0
-26 -51 53 0
-30 -51 53 0
26 30 -53 0
26 51 -53 0
30 51 -53 0
-27 -31 55 0
-27 -53 55 0
-31 -53 55 0
27 31 -55 0
27 53 -55 0
31 53 -55 0
-56 32 55 0
-56 -32 -55 0
56 32 -55 0
56 -32 55 0
-32 -55 57 0
32 55 -57 0
32 -57 0
55 -57 0
-58 44 33 0
-58 -44 -33 0
58 44 -33 0
58 -44 33 0
-44 -33 59 0
44 33 -59 0
44 -59 0
33 -59 0
-46 -34 61 0
-46 -59 61 0
-34 -59 61 0
46 34 -61 0
46 59 -61 0
34 59 -61 0
-47 -35 63 0
-47 -61 63 0
-35 -61 63 0
47 35 -63 0
47 61 -63 0
35 61 -63 0
-64 36 63 0
-64 -36 -63 0
64 36 -63 0
64 -36 63 0
-36 -63 65 0
36 63 -65 0
36 -65 0
63 -65 0
-66 37 65 0
-66 -37 -65 0
66 37 -65 0
66 -37 65 0
-37 -65 67 0
37 65 -67 0
37 -67 0
65 -67 0
-68 40 23 0
-68 -40 -23 0
68 40 -23 0
68 -40 23 0
-40 -23 69 0
40 23 -69 0
40 -69 0
23 -69 0
-42 -48 71 0
-42 -69 71 0
-48 -69 71 0
42 48 -71 0
42 69 -71 0
48 69 -71 0
-58 -50 73 0
-58 -71 73 0
-50 -71 73 0
58 50 -73 0
58 71 -73 0
50 71 -73 0
-60 -52 75 0
-60 -73 75 0
-52 -73 75 0
60 52 -75 0
60 73 -75 0
52 73 -75 0
-62 -54 77 0
-62 -75 77 0
-54 -75 77 0
62 54 -77 0
62 75 -77 0
54 75 -77 0
-64 -56 79 0
-64 -77 79 0
-56 -77 79 0
64 56 -79 0
64 77 -79 0
56 77 -79 0
-66 -57 81 0
-66 -79 81 0
-57 -79 81 0
66 57 -81 0
66 79 -81 0
57 79 -81 0
-82 67 81 0
-82 -67 -81 0
82 67 -81 0
82 -67 81 0
-67 -81 83 0
67 81 -83 0
67 -83 0
81 -83 0
13 -1 -6 0
-13 1 0
-13 6 0
14 -2 -6 0
-14 2 0
-14 6 0
15 -3 -6 0
-15 3 0
-15 6 0
16 -4 -6 0
-16 4 0
-16 6 0
17 -5 -6 0
-17 5 0
-17 6 0
18 -1 -7 0
-18 1 0
-18 7 0
19 -2 -7 0
-19 2 0
-19 7 0
20 -3 -7 0
-20 3 0
-20 7 0
21 -4 -7 0
-21 4 0
-21 7 0
22 -5 -7 0
-22 5 0
-22 7 0
23 -1 -8 0
-23 1 0
-23 8 0
24 -2 -8 0
-24 2 0
-24 8 0
25 -3 -8 0
-25 3 0
-25 8 0
26 -4 -8 0
-26 4 0
-26 8 0
27 -5 -8 0
-27 5 0
-27 8 0
28 -1 -9 0
-28 1 0
-28 9 0
29 -2 -9 0
-29 2 0
-29 9 0
30 -3 -9 0
-30 3 0
-30 9 0
31 -4 -9 0
-31 4 0
-31 9 0
32 -5 -9 0
-32 5 0
-32 9 0
33 -1 -10 0
-33 1 0
-33 10 0
34 -2 -10 0
-34 2 0
-34 10 0
35 -3 -10 0
-35 3 0
-35 10 0
36 -4 -10 0
-36 4 0
-36 10 0
37 -5 -10 0
-37 5 0
-37 10 0
13 -12 0
-13 12 0
38 -12 0
-38 12 0
68 -12 0
-68 12 0
70 -12 0
-70 12 0
72 -12 0
-72 12 0
74 -11 0
-74 11 0
76 -11 0
-76 11 0
78 -11 0
-78 11 0
80 -11 0
-80 11 0
82 -11 0
-82 11 0
83 -11 0
-83 11 0
4 5 84 0
2 3 -84 0
9 10 85 0
7 8 -85 0
19 39 86 0
-40 15 -86 0
-19 39 87 0
-40 -15 -87 0
19 -39 88 0
-40 -15 -88 0
-19 -39 89 0
-40 15 -89 0
-19 -39 90 0
40 -15 -90 0
19 -39 91 0
40 15 -91 0
-19 39 92 0
40 15 -92 0
19 39 93 0
40 -15 -93 0
20 41 94 0
-42 16 -94 0
-20 41 95 0
-42 -16 -95 0
20 -41 96 0
-42 -16 -96 0
-20 -41 97 0
-42 16 -97 0
-20 -41 98 0
42 -16 -98 0
20 -41 99 0
42 16 -99 0
-20 41 100 0
42 16 -100 0
20 41 101 0
42 -16 -101 0
21 43 102 0
-44 17 -102 0
-21 43 103 0
-44 -17 -103 0
21 -43 104 0
-44 -17 -104 0
-21 -43 105 0
-44 17 -105 0
-21 -43 106 0
44 -17 -106 0
21 -43 107 0
44 17 -107 0
-21 43 108 0
44 17 -108 0
21 43 109 0
44 -17 -109 0
29 49 110 0
-50 25 -110 0
-29 49 111 0
-50 -25 -111 0
29 -49 112 0
-50 -25 -112 0
-29 -49 113 0
-50 25 -113 0
-29 -49 114 0
50 -25 -114 0
29 -49 115 0
50 25 -115 0
-29 49 116 0
50 25 -116 0
29 49 117 0
50 -25 -117 0
30 51 118 0
-52 26 -118 0
-30 51 119 0
-52 -26 -119 0
30 -51 120 0
-52 -26 -120 0
-30 -51 121 0
-52 26 -121 0
-30 -51 122 0
52 -26 -122 0
30 -51 123 0
52 26 -123 0
-30 51 124 0
52 26 -124 0
30 51 125 0
52 -26 -125 0
31 53 126 0
-54 27 -126 0
-31 53 127 0
-54 -27 -127 0
31 -53 128 0
-54 -27 -128 0
-31 -53 129 0
-54 27 -129 0
-31 -53 130 0
54 -27 -130 0
31 -53 131 0
54 27 -131 0
-31 53 132 0
54 27 -132 0
31 53 133 0
54 -27 -133 0
34 59 134 0
-60 46 -134 0
-34 59 135 0
-60 -46 -135 0
34 -59 136 0
-60 -46 -136 0
-34 -59 137 0
-60 46 -137 0
-34 -59 138 0
60 -46 -138 0
34 -59 139 0
60 46 -139 0
-34 59 140 0
60 46 -140 0
34 59 141 0
60 -46 -141 0
35 61 142 0
-62 47 -142 0
-35 61 143 0
-62 -47 -143 0
35 -61 144 0
-62 -47 -144 0
-35 -61 145 0
-62 47 -145 0
-35 -61 146 0
62 -47 -146 0
35 -61 147 0
62 47 -147 0
-35 61 148 0
62 47 -148 0
35 61 149 0
62 -47 -149 0
48 69 150 0
-70 42 -150 0
-48 69 151 0
-70 -42 -151 0
48 -69 152 0
-70 -42 -152 0
-48 -69 153 0
-70 42 -153 0
-48 -69 154 0
70 -42 -154 0
48 -69 155 0
70 42 -155 0
-48 69 156 0
70 42 -156 0
48 69 157 0
70 -42 -157 0
50 71 158 0
-72 58 -158 0
-50 71 159 0
-72 -58 -159 0
50 -71 160 0
-72 -58 -160 0
-50 -71 161 0
-72 58 -161 0
-50 -71 162 0
72 -58 -162 0
50 -71 163 0
72 58 -163 0
-50 71 164 0
72 58 -164 0
50 71 165 0
72 -58 -165 0
52 73 166 0
-74 60 -166 0
-52 73 167 0
-74 -60 -167 0
52 -73 168 0
-74 -60 -168 0
-52 -73 169 0
-74 60 -169 0
-52 -73 170 0
74 -60 -170 0
52 -73 171 0
74 60 -171 0
-52 73 172 0
74 60 -172 0
52 73 173 0
74 -60 -173 0
54 75 174 0
-76 62 -174 0
-54 75 175 0
-76 -62 -175 0
54 -75 176 0
-76 -62 -176 0
-54 -75 177 0
-76 62 -177 0
-54 -75 178 0
76 -62 -178 0
54 -75 179 0
76 62 -179 0
-54 75 180 0
76 62 -180 0
54 75 181 0
76 -62 -181 0
56 77 182 0
-78 64 -182 0
-56 77 183 0
-78 -64 -183 0
56 -77 184 0
-78 -64 -184 0
-56 -77 185 0
-78 64 -185 0
-56 -77 186 0
78 -64 -186 0
56 -77 187 0
78 64 -187 0
-56 77 188 0
78 64 -188 0
56 77 189 0
78 -64 -189 0
57 79 190 0
-80 66 -190 0
-57 79 191 0
-80 -66 -191 0
57 -79 192 0
-80 -66 -192 0
-57 -79 193 0
-80 66 -193 0
-57 -79 194 0
80 -66 -194 0
57 -79 195 0
80 66 -195 0
-57 79 196 0
80 66 -196 0
57 79 197 0
80 -66 -197 0
